1471 798
1564 232
1213 599
776 1541
58 613
1061 1008
1475 1081
1184 58
1033 688
1204 781
138 1120
207 974
1398 190
1079 391
1329 946
1054 8
1551 1305
921 1281
1393 1059
1088 962
658 1408
1444 129
986 312
112 4
17 586
171 1465
99 927
710 66
1072 1499
1382 697
1040 1594
500 921
871 1034
1024 1266
389 234
1262 33
760 256
679 527
1370 726
1242 673
988 1353
230 1593
213 1355
498 350
472 117
1123 457
63 1221
973 81
1492 63
499 1358
